num_offers = 35;
num_halls = 10;
start=[60,2,32,21,13,80,14,9,4,38,33,37,29,29,46,89,37,36,96,53,36,36,3,10,49,11,62,3,67,20,18,16,40,25,16];
end=[64,87,62,87,20,96,34,82,22,96,41,49,74,95,54,93,50,91,99,90,75,68,5,84,97,89,100,40,70,95,99,46,85,98,92];
price=[327,860,1649,3090,688,1160,412,1635,262,1888,473,545,3076,5631,470,377,1300,2706,110,1821,1727,2724,198,1394,835,4554,3338,1475,122,4438,963,2684,2547,3960,5088];
requirement=[680,970,214,208,492,919,261,970,480,569,925,314,729,668,790,567,574,324,247,399,580,348,647,615,337,277,448,200,966,461,558,611,950,437,453];
capacity=[216,933,746,767,798,494,543,856,973,359];
